Version identifier: 12.10.0.0 | 2019-11-26 | 843d4de
CPXPARAM_WorkMem                                 16384
CPXPARAM_MIP_Limits_TreeMemory                   24576
Tried aggregator 2 times.
MIP Presolve eliminated 12 rows and 0 columns.
MIP Presolve added 24 rows and 0 columns.
Aggregator did 30 substitutions.
Reduced MIP has 54 rows, 50 columns, and 216 nonzeros.
Reduced MIP has 50 binaries, 0 generals, 0 SOSs, and 0 indicators.
Presolve time = 0,00 sec. (0,40 ticks)
Found incumbent of value 907,000000 after 0,00 sec. (0,46 ticks)
Probing fixed 4 vars, tightened 0 bounds.
Probing time = 0,00 sec. (0,17 ticks)
Tried aggregator 1 time.
Detecting symmetries...
MIP Presolve eliminated 4 rows and 4 columns.
Reduced MIP has 50 rows, 46 columns, and 192 nonzeros.
Reduced MIP has 46 binaries, 0 generals, 0 SOSs, and 0 indicators.
Presolve time = 0,00 sec. (0,15 ticks)
Probing time = 0,00 sec. (0,14 ticks)
Clique table members: 224.
MIP emphasis: balance optimality and feasibility.
MIP search method: dynamic search.
Parallel mode: deterministic, using up to 16 threads.
Root relaxation solution time = 0,00 sec. (0,09 ticks)

        Nodes                                         Cuts/
   Node  Left     Objective  IInf  Best Integer    Best Bound    ItCnt     Gap

*     0+    0                          907,0000      174,0000            80,82%
      0     0      612,0000    26      907,0000      612,0000       21   32,52%
      0     0      774,8006    26      907,0000      Cuts: 95       56   14,58%
      0     0      807,0600    26      907,0000      Cuts: 52       87   11,02%
      0     0      814,3614    26      907,0000      Cuts: 43      100   10,21%
      0     0      816,4152    26      907,0000      Cuts: 28      113    9,99%
      0     0      816,7375    26      907,0000      Cuts: 12      116    9,95%
Detecting symmetries...
      0     0      819,3923    26      907,0000      Cuts: 12      128    9,66%
      0     0      820,6331    26      907,0000      Cuts: 11      137    9,52%
      0     0      820,8762    26      907,0000   ZeroHalf: 6      144    9,50%
      0     0      821,1009    26      907,0000      Cuts: 13      147    9,47%
      0     0      821,3846    26      907,0000      Cuts: 23      158    9,44%
      0     0      822,7671    26      907,0000      Cuts: 14      170    9,29%
      0     0      823,1495    26      907,0000       Cuts: 4      176    9,24%
      0     0      823,2421    26      907,0000       Cuts: 7      182    9,23%
      0     0      823,4948    26      907,0000       Cuts: 7      189    9,21%
      0     0      823,7360    26      907,0000      Cuts: 10      195    9,18%
      0     0      824,1287    26      907,0000       Cuts: 5      204    9,14%
      0     0      824,4206    26      907,0000      Cuts: 16      209    9,10%
      0     0      824,8073    26      907,0000       Cuts: 8      219    9,06%
      0     0      824,8724    26      907,0000      Cuts: 15      224    9,05%
      0     0        cutoff            907,0000      907,0000      224    0,00%
Elapsed time = 0,08 sec. (16,63 ticks, tree = 0,01 MB, solutions = 1)

Clique cuts applied:  6
Cover cuts applied:  3
Implied bound cuts applied:  4
Zero-half cuts applied:  12

Root node processing (before b&c):
  Real time             =    0,08 sec. (16,63 ticks)
Parallel b&c, 16 threads:
  Real time             =    0,00 sec. (0,00 ticks)
  Sync time (average)   =    0,00 sec.
  Wait time (average)   =    0,00 sec.
                          ------------
Total (root+branch&cut) =    0,08 sec. (16,63 ticks)
